INCAR created by Atomic Simulation Environment
 AMIX = 0.100000
 AMIX_MAG = 0.100000
 BMIX = 0.000010
 BMIX_MAG = 0.000010
 ENCUT = 600.000000
 SIGMA = 0.050000
 EDIFF = 1.00e-06
 EDIFFG = -2.00e-02
 ALGO = normal
 GGA = PE
 PREC = Normal
 IBRION = -1
 ICHARG = 11
 ISIF = 3
 ISMEAR = 0
 ISPIN = 2
 ISTART = 1
 ISYM = 0
 KPAR = 10
 LDAUPRINT = 2
 LDAUTYPE = 2
 LMAXMIX = 4
 LORBIT = 11
 NBANDS = 88
 NELM = 250
 NPAR = 6
 NSW = 0
 NEDOS = 3000
 INIMIX = 0
 LAECHG = .TRUE.
 LASPH = .TRUE.
 LDAU = .TRUE.
 LVTOT = .FALSE.
 LREAL = .FALSE.
 LDAUL = -1 -1
 LDAUU = 0.000 0.000
 LDAUJ = 0.000 0.000
