Mn Au  O                                
    1.000000000000000     
     1.5758093110000000    2.8190170580000000    0.0586603200000000
    -1.5758093110000000    2.8190170580000000    0.0586603200000000
     0.0000000000000000    1.6099963790000000    6.1787148629999997
   Mn   Au   O 
     1     1     2
Direct
  0.5000012077330425  0.5000012077330425  0.4999987225188107
  0.0000000000000000  0.0000000000000000  0.0000000000000000
  0.8942662462474189  0.8942662462474189  0.3305823552226670
  0.1057339211944850  0.1057339211944850  0.6694167509596838
 
  0.00000000E+00  0.00000000E+00  0.00000000E+00
  0.00000000E+00  0.00000000E+00  0.00000000E+00
  0.00000000E+00  0.00000000E+00  0.00000000E+00
  0.00000000E+00  0.00000000E+00  0.00000000E+00
