INCAR created by Atomic Simulation Environment
 AMIX = 0.100000
 AMIX_MAG = 0.100000
 BMIX = 0.000010
 BMIX_MAG = 0.000010
 ENCUT = 600.000000
 SIGMA = 0.050000
 EDIFF = 1.00e-06
 EDIFFG = -2.00e-02
 ALGO = normal
 GGA = PE
 PREC = Normal
 IBRION = 2
 ICHARG = 11
 ISIF = 3
 ISMEAR = 0
 ISPIN = 2
 ISTART = 1
 ISYM = 0
 KPAR = 4
 LDAUPRINT = 2
 LDAUTYPE = 2
 LMAXMIX = 6
 LORBIT = 11
 NBANDS = 40
 NELM = 250
 NPAR = 1
 NSW = 0
 NEDOS = 3000
 INIMIX = 0
 LAECHG = .TRUE.
 LASPH = .TRUE.
 LDAU = .TRUE.
 LVTOT = .FALSE.
 LREAL = .FALSE.
 LDAUL = 2 -1 -1
 LDAUU = 7.000 0.000 0.000
 LDAUJ = 0.000 0.000 0.000
 MAGMOM = 1*4.4900 1*-0.1990 2*-0.1720 
