Mn Au  O 
 1.0000000000000000
     1.5758093110000000    2.8190170580000000    0.0586603200000000
    -1.5758093110000000    2.8190170580000000    0.0586603200000000
     0.0000000000000000    1.6099963790000000    6.1787148629999997
 Mn  Au  O  
   1   1   2
Cartesian
  0.0000000000000000  3.6240199999999998  3.1480100000000002
  0.0000000000000000  0.0000000000000000 -0.0000000000000000
  0.0000000000000000  5.5741399999999999  2.1474899999999999
 -0.0000000000000000  1.6738900000000001  4.1485399999999997
