Ru  O                                   
   1.00000000000000     
     6.5831077010000003    0.1363276620000000    0.1026960620000000
     4.7942834569999997    4.5133916029999996    0.1026970010000000
    -1.1092427570000001   -0.4533249050000000    5.1706886619999999
   Ru   O 
     4    10
Direct
  0.8975976726825294  0.3843757097121454  0.7804678032093122
  0.6156286034312899  0.1024010178923618  0.7195349270743137
  0.1023985110127086  0.6156256266137703  0.2195319124345190
  0.3843723319227763  0.8975979545171313  0.2804647411465311
  0.3784473614565229  0.2187810576318867  0.3706115206457810
  0.7812194474537435  0.6215510855559572  0.1293890331573380
  0.5868751710659055  0.4131230525682952  0.7499994654490010
  0.9617767460209947  0.8357031457392168  0.5337944883726919
  0.1643001868784566  0.0382212751050943  0.9662082043751639
  0.6215503725393035  0.7812202288737282  0.6293881651967297
  0.2187797497728923  0.3784477488478259  0.8706087383474141
  0.4131241132305092  0.5868781841170190  0.2500001905921820
  0.0382226390324831  0.1642958764905771  0.4662052096494733
  0.8356990974179581  0.9617799615802198  0.0337914516660263
 
  0.00000000E+00  0.00000000E+00  0.00000000E+00
  0.00000000E+00  0.00000000E+00  0.00000000E+00
  0.00000000E+00  0.00000000E+00  0.00000000E+00
  0.00000000E+00  0.00000000E+00  0.00000000E+00
  0.00000000E+00  0.00000000E+00  0.00000000E+00
  0.00000000E+00  0.00000000E+00  0.00000000E+00
  0.00000000E+00  0.00000000E+00  0.00000000E+00
  0.00000000E+00  0.00000000E+00  0.00000000E+00
  0.00000000E+00  0.00000000E+00  0.00000000E+00
  0.00000000E+00  0.00000000E+00  0.00000000E+00
  0.00000000E+00  0.00000000E+00  0.00000000E+00
  0.00000000E+00  0.00000000E+00  0.00000000E+00
  0.00000000E+00  0.00000000E+00  0.00000000E+00
  0.00000000E+00  0.00000000E+00  0.00000000E+00
